NAME          BLANK   
ROWS
 N  OBJROW
 L  R0000000
COLUMNS
    C0000000  OBJROW     -366.         R0000000  581.        
    C0000001  OBJROW     -474.         R0000000  701.        
    C0000002  OBJROW     -776.         R0000000  62.         
    C0000003  OBJROW     -386.         R0000000  253.        
    C0000004  OBJROW     -226.         R0000000  110.        
    C0000005  OBJROW     -16.          R0000000  667.        
    C0000006  OBJROW     -755.         R0000000  487.        
    C0000007  OBJROW     -365.         R0000000  135.        
    C0000008  OBJROW     -654.         R0000000  669.        
    C0000009  OBJROW     -716.         R0000000  367.        
    C0000010  OBJROW     -924.         R0000000  884.        
    C0000011  OBJROW     -671.         R0000000  253.        
    C0000012  OBJROW     -292.         R0000000  102.        
    C0000013  OBJROW     -873.         R0000000  435.        
    C0000014  OBJROW     -627.         R0000000  569.        
RHS
    RHS       R0000000  14132.      
BOUNDS
 BV BOUND     C0000000  1.          
 BV BOUND     C0000001  1.          
 BV BOUND     C0000002  1.          
 BV BOUND     C0000003  1.          
 BV BOUND     C0000004  1.          
 BV BOUND     C0000005  1.          
 BV BOUND     C0000006  1.          
 BV BOUND     C0000007  1.          
 BV BOUND     C0000008  1.          
 BV BOUND     C0000009  1.          
 BV BOUND     C0000010  1.          
 BV BOUND     C0000011  1.          
 BV BOUND     C0000012  1.          
 BV BOUND     C0000013  1.          
 BV BOUND     C0000014  1.          
ENDATA
